p tw 92 1087
0 1
0 2
0 3
0 4
0 5
0 6
0 7
0 11
0 14
0 28
0 42
0 44
0 45
0 50
0 51
0 52
0 53
0 54
0 55
0 33
0 49
0 68
0 80
1 2
1 3
1 4
1 5
1 6
1 7
1 11
1 14
1 28
1 42
1 44
1 45
1 50
1 51
1 52
1 53
1 54
1 55
1 10
1 26
1 40
1 47
1 63
1 18
1 31
1 59
1 71
1 76
1 79
1 33
1 49
1 68
1 80
1 13
1 29
1 37
1 56
2 3
2 4
2 5
2 6
2 7
2 8
2 12
2 26
2 48
2 49
2 69
2 70
2 14
2 15
2 43
2 50
2 54
2 78
2 18
2 31
2 59
2 71
2 76
2 79
3 4
3 5
3 6
3 7
3 10
3 26
3 40
3 47
3 53
3 63
3 34
3 35
3 51
3 62
3 65
3 68
3 86
4 5
4 6
4 7
4 12
4 28
4 38
4 45
4 61
4 63
4 68
4 13
4 55
4 62
4 65
4 66
4 72
5 6
5 7
5 10
5 16
5 37
5 49
5 60
5 62
5 23
5 29
5 58
5 82
5 84
5 86
5 13
5 21
5 40
5 67
5 80
5 89
5 90
6 7
6 30
6 39
6 40
6 41
6 42
6 43
6 15
6 17
6 24
6 63
6 68
6 76
6 85
7 33
7 49
7 53
7 68
7 80
7 25
7 28
7 29
7 30
7 61
8 9
8 10
8 11
8 12
8 13
8 14
8 15
8 26
8 30
8 36
8 46
8 47
8 48
8 49
8 69
8 70
8 16
8 41
8 50
8 58
8 76
8 78
8 77
8 82
8 85
9 10
9 11
9 12
9 13
9 14
9 15
9 17
9 67
9 74
9 75
9 76
9 77
9 16
9 22
9 56
9 57
9 60
9 73
9 21
9 30
9 39
9 54
9 87
10 11
10 12
10 13
10 14
10 15
10 16
10 37
10 49
10 60
10 62
10 26
10 40
10 47
10 53
10 63
10 17
10 21
10 30
10 39
10 54
10 87
11 12
11 13
11 14
11 15
11 28
11 42
11 44
11 45
11 16
11 22
11 56
11 57
11 60
11 73
12 13
12 14
12 15
12 20
12 35
12 49
12 53
12 59
12 60
12 61
12 26
12 48
12 69
12 70
12 28
12 38
12 45
12 63
12 68
12 34
12 36
12 62
12 71
12 17
12 67
12 74
12 75
12 76
12 77
12 58
12 82
12 85
12 42
12 64
12 65
12 83
13 14
13 15
13 21
13 24
13 28
13 30
13 36
13 37
13 38
13 55
13 61
13 62
13 65
13 66
13 72
13 29
13 42
13 50
13 56
13 40
13 67
13 80
13 89
13 90
14 15
14 22
14 23
14 24
14 25
14 26
14 27
14 28
14 42
14 44
14 45
14 41
14 53
14 56
14 57
14 58
14 43
14 50
14 54
14 78
14 29
14 37
15 16
15 17
15 18
15 19
15 20
15 21
15 22
15 43
15 50
15 54
15 78
15 44
15 56
15 61
15 65
15 81
15 24
15 63
15 68
15 76
15 85
15 23
15 40
15 47
15 74
16 17
16 18
16 19
16 20
16 21
16 22
16 29
16 30
16 31
16 32
16 33
16 34
16 35
16 37
16 49
16 60
16 62
16 46
16 50
16 56
16 63
16 68
16 57
16 73
16 41
16 58
16 76
16 78
16 23
16 82
16 84
16 86
16 45
16 54
16 61
16 71
16 79
16 81
16 88
17 18
17 19
17 20
17 21
17 22
17 67
17 74
17 75
17 76
17 77
17 24
17 63
17 68
17 85
17 30
17 39
17 54
17 87
18 19
18 20
18 21
18 22
18 31
18 59
18 71
18 76
18 79
18 24
18 38
18 46
18 49
18 61
18 74
18 81
18 23
18 47
18 50
18 55
18 63
18 82
18 83
19 20
19 21
19 22
19 44
19 50
19 56
19 61
19 65
19 81
20 21
20 22
20 35
20 49
20 53
20 59
20 60
20 61
20 42
20 58
20 64
20 65
20 83
21 22
21 24
21 28
21 30
21 36
21 37
21 38
21 32
21 49
21 52
21 60
21 71
21 81
21 39
21 54
21 87
21 29
21 63
21 79
21 88
21 23
21 40
21 47
21 50
21 74
21 67
21 80
21 89
21 90
22 23
22 24
22 25
22 26
22 27
22 28
22 41
22 53
22 56
22 57
22 58
22 60
22 73
22 33
22 54
22 62
22 64
22 84
22 91
23 24
23 25
23 26
23 27
23 28
23 47
23 50
23 55
23 63
23 82
23 83
23 29
23 58
23 84
23 86
23 45
23 54
23 61
23 68
23 71
23 40
23 74
24 25
24 26
24 27
24 28
24 30
24 36
24 37
24 38
24 46
24 49
24 61
24 74
24 81
24 53
24 83
24 84
24 63
24 68
24 76
24 85
25 26
25 27
25 28
25 29
25 30
25 61
25 80
25 43
25 54
25 77
25 85
25 86
26 27
26 28
26 30
26 36
26 46
26 47
26 48
26 49
26 40
26 53
26 63
26 69
26 70
26 58
26 77
26 82
26 85
27 28
27 41
27 53
27 56
27 57
27 58
28 30
28 36
28 37
28 38
28 42
28 44
28 45
28 61
28 63
28 68
28 29
28 80
29 30
29 31
29 32
29 33
29 34
29 35
29 37
29 42
29 50
29 56
29 58
29 82
29 84
29 86
29 61
29 80
29 43
29 54
29 77
29 85
29 63
29 79
29 81
29 88
30 31
30 32
30 33
30 34
30 35
30 36
30 37
30 38
30 39
30 40
30 41
30 42
30 43
30 46
30 47
30 48
30 49
30 54
30 87
30 61
30 80
31 32
31 33
31 34
31 35
31 37
31 46
31 50
31 56
31 63
31 68
31 59
31 71
31 76
31 79
32 33
32 34
32 35
32 49
32 52
32 60
32 71
32 81
33 34
33 35
33 49
33 53
33 68
33 80
33 54
33 57
33 62
33 64
33 84
33 91
34 35
34 36
34 38
34 62
34 71
34 51
34 65
34 68
34 86
35 49
35 53
35 59
35 60
35 61
35 37
35 38
35 48
35 64
35 65
35 66
35 67
35 51
35 62
35 68
35 86
36 37
36 38
36 46
36 47
36 48
36 49
36 62
36 71
37 38
37 49
37 60
37 62
37 48
37 64
37 65
37 66
37 67
37 46
37 50
37 56
37 63
37 68
37 42
37 53
37 81
37 83
37 84
38 48
38 64
38 65
38 66
38 67
38 45
38 61
38 63
38 68
38 62
38 71
38 46
38 49
38 74
38 81
39 40
39 41
39 42
39 43
39 54
39 87
40 41
40 42
40 43
40 47
40 53
40 63
40 50
40 74
40 67
40 80
40 89
40 90
41 42
41 43
41 53
41 56
41 57
41 58
41 49
41 50
41 76
41 78
42 43
42 44
42 45
42 50
42 56
42 58
42 60
42 64
42 65
42 83
42 57
42 59
42 68
42 69
42 81
42 88
42 89
43 50
43 54
43 78
43 77
43 80
43 85
43 86
44 45
44 50
44 53
44 60
44 62
44 67
44 71
44 73
44 56
44 61
44 65
44 81
45 61
45 63
45 68
45 54
45 71
46 47
46 48
46 49
46 50
46 56
46 63
46 68
46 61
46 74
46 81
46 53
46 83
46 84
47 48
47 49
47 53
47 63
47 50
47 55
47 82
47 83
47 74
48 49
48 64
48 65
48 66
48 67
48 69
48 70
49 53
49 59
49 60
49 61
49 62
49 69
49 70
49 68
49 80
49 52
49 71
49 81
49 74
49 50
49 58
49 76
49 78
50 51
50 52
50 53
50 54
50 55
50 56
50 63
50 68
50 60
50 62
50 67
50 71
50 73
50 78
50 61
50 65
50 81
50 82
50 83
50 58
50 76
50 74
51 52
51 53
51 54
51 55
51 62
51 65
51 68
51 86
52 53
52 54
52 55
52 60
52 71
52 81
53 54
53 55
53 56
53 57
53 58
53 59
53 60
53 61
53 63
53 62
53 67
53 71
53 73
53 68
53 80
53 81
53 83
53 84
54 55
54 78
54 87
54 61
54 63
54 68
54 71
54 77
54 80
54 85
54 86
54 57
54 62
54 64
54 84
54 91
55 61
55 62
55 65
55 66
55 72
55 63
55 82
55 83
56 57
56 58
56 63
56 68
56 61
56 65
56 81
56 60
56 73
57 58
57 60
57 73
57 59
57 68
57 69
57 81
57 88
57 89
57 62
57 64
57 84
57 91
58 76
58 78
58 82
58 84
58 86
58 77
58 85
58 60
58 64
58 65
58 83
59 60
59 61
59 71
59 76
59 79
59 68
59 69
59 81
59 88
59 89
60 61
60 62
60 67
60 71
60 73
60 81
60 64
60 65
60 83
61 63
61 68
61 62
61 65
61 66
61 72
61 81
61 74
61 71
61 80
62 71
62 65
62 66
62 72
62 67
62 73
62 68
62 86
62 64
62 84
62 91
63 68
63 82
63 83
63 76
63 85
63 71
63 79
63 81
63 88
64 65
64 66
64 67
64 83
64 84
64 91
65 66
65 67
65 72
65 81
65 68
65 86
65 83
66 67
66 72
67 71
67 73
67 74
67 75
67 76
67 77
67 80
67 89
67 90
68 80
68 76
68 85
68 86
68 71
68 69
68 81
68 88
68 89
69 70
69 81
69 88
69 89
71 73
71 76
71 79
71 81
74 75
74 76
74 77
74 81
75 76
75 77
76 77
76 79
76 85
76 78
77 82
77 85
77 80
77 86
79 81
79 88
80 85
80 86
80 89
80 90
81 83
81 84
81 88
81 89
82 83
82 84
82 86
82 85
83 84
84 86
84 91
85 86
88 89
89 90
